NAME          
ROWS
 N  OBJ
 L  c1
COLUMNS
    MARKER    'MARKER'                 'INTORG'
    x[1]      c1        800
    x[1]      OBJ       -80
    x[2]      c1        770
    x[2]      OBJ       -25
    x[3]      c1        525
    x[3]      OBJ       -908
    x[4]      c1        712
    x[4]      OBJ       -9
    x[5]      c1        928
    x[5]      OBJ       -700
    x[6]      c1        47
    x[6]      OBJ       -21
    x[7]      c1        622
    x[7]      OBJ       -617
    x[8]      c1        729
    x[8]      OBJ       -84
    x[9]      c1        87
    x[9]      OBJ       -340
    x[10]     c1        511
    x[10]     OBJ       -78
RHS
    rhs       c1        2866
RANGES
BOUNDS
 BV bounds    x[1]
 BV bounds    x[2]
 BV bounds    x[3]
 BV bounds    x[4]
 BV bounds    x[5]
 BV bounds    x[6]
 BV bounds    x[7]
 BV bounds    x[8]
 BV bounds    x[9]
 BV bounds    x[10]
ENDATA
